50
1000
490
489
485
473
456
444
436
428
424
420
409
407
395
384
382
376
372
370
360
358
340
338
338
335
326
319
305
302
293
291
287
271
262
256
249
248
245
231
203
198
196
194
194
194
182
182
171
169
169
168
